# Solution for model count
# Objective value = 10
z#1 1
z#2 1
z#3 0
z#4 0
z#5 0
z#6 1
z#7 0
z#8 1
z#9 1
z#10 0
z#11 0
z#12 0
z#13 0
z#14 1
z#15 0
z#16 1
z#17 1
z#18 0
z#19 0
z#20 0
z#21 0
z#22 1
z#23 1
z#24 0
x#24 0
x#23 259
x#22 1758
x#21 0
x#20 0
x#19 0
x#18 0
x#17 2861
x#16 16
x#15 0
x#14 911
x#13 0
x#12 0
x#11 0
x#10 0
x#9 3372
x#8 268
x#7 0
x#6 331
x#5 0
x#4 0
x#3 0
x#2 71
x#1 153
